p cnf 12 50 
-10 11 2 0
8 10 -4 0
-10 -9 2 0
-2 -10 -4 0
11 6 4 0
-4 8 -7 0
-3 11 8 0
12 3 -5 0
5 2 -9 0
-4 10 7 0
-3 -2 -12 0
3 -2 4 0
-5 11 3 0
2 11 8 0
7 6 -3 0
-1 -8 -3 0
6 2 4 0
-12 -9 -2 0
-10 3 6 0
5 11 1 0
-7 9 4 0
-4 -9 -2 0
11 8 9 0
-8 4 -9 0
5 2 -12 0
4 9 -10 0
-9 12 -4 0
-4 6 10 0
1 -11 -7 0
12 -11 6 0
9 -4 10 0
-10 1 4 0
-4 -3 -8 0
-10 -7 -5 0
6 -12 7 0
7 6 1 0
8 11 10 0
12 6 -8 0
6 -7 -11 0
11 -8 2 0
5 7 11 0
2 11 5 0
6 -3 -12 0
-6 -3 10 0
2 -4 -10 0
-7 12 9 0
-4 -1 -8 0
2 -12 -11 0
1 -11 2 0
-6 4 7 0
